c WARNING: for repeatability, setting FPU to use double precision
d VARIABLES            226848       
d CONSTRAINTS          984494       
c ============================[ Problem Statistics ]=============================
c |                                                                             |
c |  Number of variables:        226848                                         |
c |  Number of clauses:          984494                                         |
c |  Parse time:                   0.16 s                                       |
c |                                                                             |
c ============================[ Search Statistics ]==============================
c | Conflicts |          ORIGINAL         |          LEARNT          | Progress |
c |           |    Vars  Clauses Literals |    Limit  Clauses Lit/Cl |          |
c ===============================================================================
c |       100 |  186211   880072  2133649 |   322693       98     29 | 17.914 % |
c |       250 |  186211   880072  2133649 |   354962      248     63 | 17.914 % |
c |       475 |  186211   880072  2133649 |   390458      473     76 | 17.914 % |
c |       812 |  186211   880072  2133649 |   429504      810     92 | 17.914 % |
c |      1318 |  186211   878192  2129137 |   472454     1312    109 | 17.914 % |
c |      2077 |  186211   878192  2129137 |   519700     2071    104 | 17.914 % |
c |      3216 |  186211   878192  2129137 |   571670     3210    122 | 17.914 % |
c |      4924 |  186211   878192  2129137 |   628837     4918    118 | 17.914 % |
c |      7486 |  186211   878192  2129137 |   691721     7480    140 | 17.914 % |
c |     11330 |  186211   878192  2129137 |   760893    11324    144 | 17.914 % |
c |     17096 |  186211   878192  2129137 |   836982    17090    153 | 17.914 % |
c |     25745 |  186211   878192  2129137 |   920680    25739    168 | 17.914 % |
c |     38719 |  186211   878192  2129137 |  1012749    38713    155 | 17.914 % |
c |     58180 |  186211   878192  2129137 |  1114023    58174    186 | 17.914 % |
c |     87372 |  186211   878192  2129137 |  1225426    87366    172 | 17.914 % |
c |    131161 |  186211   878192  2129137 |  1347969   131155    184 | 17.914 % |
c |    196845 |  186211   878192  2129137 |  1482765   196839    183 | 17.914 % |
c |    295371 |  186211   878192  2129137 |  1631042   295365    176 | 17.914 % |
c |    443160 |  186211   878192  2129137 |  1794146   443154    179 | 17.914 % |
c |    664843 |  186211   878192  2129137 |  1973561   664837    219 | 17.914 % |
c |    997368 |  186211   878192  2129137 |  2170917   997362    209 | 17.914 % |
c |   1496156 |  186211   878192  2129137 |  2388009  1496150    202 | 17.914 % |
c ===============================================================================
c restarts              : 3629
c conflicts             : 1884036        (1057 /sec)
c decisions             : 4827420        (0.00 % random) (2708 /sec)
c propagations          : 2945273046     (1652398 /sec)
c conflict literals     : 375886486      (39.61 % deleted)
d RESTARTS             3629
d FAILURES             1884036      
d NODES                4827420      
d BACKTRACKS           4827420      
d PROPAGATIONS         2945273046   
d NOGOODSIZE           199.51 
d MEMORY               2553.00 
d TIME                 1782.42 

s UNKNOWN
